NAME = SAfile180,
TOURSIZE = 180,
LENGTH = 2070,
82,72,62,137,123,153,159,78,74,163,145,104,177,169,55,124,109,30,51,47,178,7,120,115,165,160,92,95,43,52,135,158,116,172,45,12,16,29,152,139,150,149,107,35,84,130,119,71,140,5,132,6,126,127,146,143,100,65,174,173,175,22,99,49,117,151,112,81,48,94,26,101,9,148,59,161,154,129,102,88,25,133,144,108,157,56,86,87,114,111,110,105,69,67,131,76,46,138,38,50,4,32,113,57,142,98,91,1,11,42,21,8,93,79,162,61,15,147,40,155,128,77,70,23,37,36,66,64,171,83,41,54,28,73,33,125,58,180,176,103,96,170,164,53,31,141,27,18,2,156,97,10,34,3,39,75,167,90,136,63,106,19,17,68,20,122,134,13,44,24,80,121,179,166,118,89,168,14,60,85